c "228576.clq"
p edge 140 544
e 1 5
e 1 6
e 1 7
e 1 18
e 1 23
e 1 37
e 1 38
e 1 41
e 1 61
e 1 65
e 1 75
e 1 111
e 1 116
e 1 131
e 1 133
e 2 5
e 2 6
e 2 7
e 2 12
e 2 16
e 2 22
e 2 74
e 2 77
e 2 78
e 2 133
e 3 5
e 3 6
e 3 7
e 3 8
e 3 9
e 3 17
e 3 19
e 3 22
e 3 25
e 3 26
e 3 27
e 3 49
e 3 54
e 3 61
e 3 63
e 3 64
e 3 79
e 3 80
e 3 81
e 3 84
e 3 100
e 3 102
e 3 105
e 3 115
e 3 117
e 3 121
e 3 131
e 3 134
e 4 5
e 4 121
e 5 6
e 5 7
e 5 8
e 5 9
e 5 10
e 5 11
e 5 12
e 5 13
e 5 14
e 5 15
e 5 19
e 5 20
e 5 21
e 5 26
e 5 28
e 5 31
e 5 33
e 5 51
e 5 52
e 5 54
e 5 56
e 5 60
e 5 66
e 5 85
e 5 90
e 5 96
e 5 117
e 5 133
e 5 138
e 6 8
e 6 9
e 6 10
e 6 11
e 6 18
e 6 19
e 6 24
e 6 25
e 6 36
e 6 38
e 6 39
e 6 42
e 6 43
e 6 46
e 6 47
e 6 52
e 6 56
e 6 69
e 6 70
e 6 75
e 6 76
e 6 79
e 6 80
e 6 81
e 6 86
e 6 94
e 6 100
e 6 106
e 6 123
e 6 125
e 7 8
e 7 9
e 7 10
e 7 11
e 7 12
e 7 13
e 7 14
e 7 15
e 7 16
e 7 18
e 7 20
e 7 21
e 7 24
e 7 30
e 7 34
e 7 35
e 7 40
e 7 42
e 7 45
e 7 53
e 7 63
e 7 70
e 7 93
e 7 95
e 7 96
e 7 115
e 7 118
e 7 120
e 8 12
e 8 22
e 8 27
e 8 37
e 8 39
e 8 109
e 8 135
e 8 139
e 9 10
e 9 14
e 9 23
e 9 30
e 9 32
e 9 36
e 9 48
e 9 50
e 9 78
e 9 82
e 9 83
e 9 92
e 9 112
e 9 122
e 10 11
e 10 13
e 10 16
e 10 17
e 10 37
e 10 40
e 10 55
e 10 58
e 10 111
e 10 118
e 10 121
e 11 13
e 11 14
e 11 15
e 11 18
e 11 20
e 11 21
e 11 24
e 11 38
e 11 41
e 11 45
e 11 47
e 11 85
e 11 119
e 11 140
e 12 22
e 12 29
e 12 31
e 12 45
e 12 50
e 12 57
e 12 65
e 12 72
e 12 88
e 12 119
e 12 123
e 13 15
e 13 16
e 13 17
e 13 25
e 13 27
e 13 28
e 13 31
e 13 33
e 13 35
e 13 39
e 13 44
e 13 46
e 13 48
e 13 49
e 13 58
e 13 64
e 13 66
e 13 67
e 13 73
e 13 77
e 13 78
e 13 94
e 13 98
e 13 103
e 13 112
e 13 115
e 13 121
e 13 124
e 13 125
e 13 126
e 13 131
e 13 134
e 14 17
e 14 20
e 14 21
e 14 24
e 14 31
e 14 36
e 14 37
e 14 44
e 14 58
e 14 89
e 14 114
e 14 120
e 14 130
e 14 137
e 15 19
e 15 25
e 15 29
e 15 32
e 15 34
e 15 43
e 15 44
e 15 45
e 15 50
e 15 53
e 15 54
e 15 55
e 15 57
e 15 62
e 15 101
e 15 103
e 15 126
e 15 129
e 16 33
e 16 35
e 16 71
e 16 87
e 16 138
e 17 47
e 17 95
e 17 98
e 17 140
e 18 23
e 18 29
e 18 30
e 18 34
e 18 51
e 18 55
e 18 63
e 18 69
e 18 89
e 18 99
e 18 106
e 18 118
e 19 23
e 19 28
e 19 55
e 19 61
e 19 62
e 19 71
e 19 83
e 19 116
e 20 40
e 20 51
e 20 67
e 20 72
e 20 73
e 20 80
e 20 84
e 20 90
e 20 91
e 20 104
e 20 110
e 20 111
e 21 82
e 21 97
e 22 26
e 22 34
e 22 38
e 22 61
e 22 65
e 23 28
e 23 30
e 23 32
e 23 57
e 23 60
e 23 101
e 23 108
e 23 116
e 23 128
e 24 26
e 24 32
e 24 102
e 25 27
e 25 47
e 25 59
e 25 66
e 25 69
e 25 78
e 25 81
e 25 92
e 25 94
e 25 95
e 25 97
e 25 129
e 26 68
e 26 126
e 27 35
e 27 43
e 27 48
e 27 53
e 27 63
e 27 72
e 27 114
e 27 117
e 27 122
e 28 29
e 28 33
e 28 44
e 28 50
e 28 64
e 28 76
e 28 79
e 28 84
e 28 88
e 28 91
e 28 92
e 28 94
e 28 120
e 28 123
e 28 136
e 29 59
e 29 102
e 30 36
e 30 49
e 30 59
e 30 93
e 30 104
e 31 43
e 31 46
e 31 66
e 31 73
e 31 86
e 31 92
e 31 103
e 31 105
e 31 106
e 31 136
e 32 41
e 32 116
e 33 41
e 33 52
e 33 68
e 33 89
e 33 109
e 34 68
e 34 73
e 34 88
e 35 42
e 35 49
e 35 83
e 35 110
e 35 119
e 36 140
e 37 39
e 37 40
e 37 65
e 37 70
e 37 71
e 37 85
e 37 93
e 37 96
e 37 97
e 37 113
e 37 132
e 37 136
e 38 46
e 38 102
e 38 119
e 38 137
e 39 42
e 39 54
e 39 88
e 39 91
e 39 93
e 39 103
e 39 107
e 39 139
e 40 77
e 40 124
e 40 128
e 41 100
e 42 80
e 42 128
e 42 132
e 43 56
e 43 62
e 43 127
e 44 51
e 44 75
e 44 76
e 44 81
e 44 82
e 44 98
e 44 113
e 44 124
e 44 132
e 44 140
e 45 52
e 45 67
e 45 75
e 45 83
e 45 99
e 45 104
e 46 48
e 46 56
e 46 62
e 47 101
e 47 108
e 49 53
e 49 58
e 49 70
e 49 87
e 50 69
e 50 126
e 51 59
e 52 60
e 52 76
e 52 90
e 54 114
e 55 57
e 55 60
e 55 64
e 55 72
e 55 74
e 55 86
e 55 106
e 55 108
e 55 114
e 55 134
e 56 84
e 57 117
e 57 130
e 58 135
e 59 91
e 62 74
e 62 82
e 62 100
e 63 71
e 63 79
e 63 107
e 65 67
e 65 90
e 65 135
e 66 85
e 66 115
e 66 125
e 66 135
e 67 68
e 67 137
e 68 77
e 68 87
e 68 105
e 68 110
e 68 127
e 69 95
e 69 101
e 69 107
e 69 139
e 70 128
e 71 112
e 72 120
e 72 124
e 73 74
e 73 98
e 73 109
e 74 96
e 74 105
e 74 123
e 78 111
e 78 118
e 79 99
e 80 113
e 80 130
e 81 87
e 81 107
e 81 125
e 83 122
e 84 86
e 84 89
e 84 97
e 86 138
e 88 127
e 88 131
e 90 110
e 90 132
e 91 99
e 91 104
e 98 108
e 99 122
e 100 129
e 100 133
e 100 134
e 107 109
e 107 127
e 107 130
e 109 113
e 110 112
e 112 137
e 118 139
e 122 136
e 125 129
e 131 138
